p cnf 87 733
9 27 35 61 70 0
1 19 71 0
10 28 46 54 63 0
3 20 38 0
4 29 48 56 65 0
22 39 57 66 84 0
23 40 49 67 85 0
6 24 41 50 58 0
7 16 0
52 60 0
-1 -10 2 0
-1 -11 3 0
-1 -12 4 0
-1 -13 5 0
-1 -14 0
-1 -15 6 0
-1 -16 7 0
-1 -17 8 0
-2 -19 1 0
-2 -20 3 0
-2 -21 4 0
-2 -22 5 0
-2 -23 0
-2 -24 6 0
-2 -25 7 0
-2 -26 8 0
-3 -28 2 0
-3 -29 4 0
-3 -30 5 0
-3 -31 0
-3 -32 6 0
-3 -33 7 0
-3 -34 8 0
-4 -36 1 0
-4 -37 2 0
-4 -38 3 0
-4 -39 5 0
-4 -40 0
-4 -41 6 0
-4 -42 7 0
-4 -43 8 0
-5 -45 1 0
-5 -46 2 0
-5 -47 3 0
-5 -48 4 0
-5 -49 0
-5 -50 6 0
-5 -51 7 0
-5 -52 8 0
-6 -62 1 0
-6 -63 2 0
-6 -64 3 0
-6 -65 4 0
-6 -66 5 0
-6 -67 0
-6 -68 7 0
-6 -69 8 0
-7 -71 1 0
-7 -72 2 0
-7 -73 3 0
-7 -74 4 0
-7 -75 5 0
-7 -76 0
-7 -77 6 0
-7 -78 8 0
-8 -80 1 0
-8 -81 2 0
-8 -82 3 0
-8 -83 4 0
-8 -84 5 0
-8 -85 0
-8 -86 6 0
-8 -87 7 0
-9 -2 10 0
-9 -3 11 0
-9 -4 12 0
-9 -5 13 0
-9 -6 15 0
-9 -7 16 0
-9 -8 17 0
-10 -18 9 0
-10 -20 11 0
-10 -21 12 0
-10 -22 13 0
-10 -23 14 0
-10 -24 15 0
-10 -25 16 0
-10 -26 17 0
-11 -27 9 0
-11 -28 10 0
-11 -29 12 0
-11 -30 13 0
-11 -31 14 0
-11 -32 15 0
-11 -33 16 0
-11 -34 17 0
-12 -35 9 0
-12 -37 10 0
-12 -38 11 0
-12 -39 13 0
-12 -40 14 0
-12 -41 15 0
-12 -42 16 0
-12 -43 17 0
-13 -44 9 0
-13 -46 10 0
-13 -47 11 0
-13 -48 12 0
-13 -49 14 0
-13 -50 15 0
-13 -51 16 0
-13 -52 17 0
-14 9 0
-14 -54 10 0
-14 -55 11 0
-14 -56 12 0
-14 -57 13 0
-14 -58 15 0
-14 -59 16 0
-14 -60 17 0
-15 -61 9 0
-15 -63 10 0
-15 -64 11 0
-15 -65 12 0
-15 -66 13 0
-15 -67 14 0
-15 -68 16 0
-15 -69 17 0
-16 -70 9 0
-16 -72 10 0
-16 -73 11 0
-16 -74 12 0
-16 -75 13 0
-16 -76 14 0
-16 -77 15 0
-16 -78 17 0
-17 -79 9 0
-17 -81 10 0
-17 -82 11 0
-17 -83 12 0
-17 -84 13 0
-17 -85 14 0
-17 -86 15 0
-17 -87 16 0
-18 -1 19 0
-18 -3 20 0
-18 -4 21 0
-18 -5 22 0
-18 -6 24 0
-18 -7 25 0
-18 -8 26 0
-19 -9 18 0
-19 -11 20 0
-19 -12 21 0
-19 -13 22 0
-19 -14 23 0
-19 -15 24 0
-19 -16 25 0
-19 -17 26 0
-20 -27 18 0
-20 -29 21 0
-20 -30 22 0
-20 -31 23 0
-20 -32 24 0
-20 -33 25 0
-20 -34 26 0
-21 -35 18 0
-21 -36 19 0
-21 -38 20 0
-21 -39 22 0
-21 -40 23 0
-21 -41 24 0
-21 -42 25 0
-21 -43 26 0
-22 -44 18 0
-22 -45 19 0
-22 -47 20 0
-22 -48 21 0
-22 -49 23 0
-22 -50 24 0
-22 -51 25 0
-22 -52 26 0
-23 18 0
-23 -53 19 0
-23 -55 20 0
-23 -56 21 0
-23 -57 22 0
-23 -58 24 0
-23 -59 25 0
-23 -60 26 0
-24 -61 18 0
-24 -62 19 0
-24 -64 20 0
-24 -65 21 0
-24 -66 22 0
-24 -67 23 0
-24 -68 25 0
-24 -69 26 0
-25 -70 18 0
-25 -71 19 0
-25 -73 20 0
-25 -74 21 0
-25 -75 22 0
-25 -76 23 0
-25 -77 24 0
-25 -78 26 0
-26 -79 18 0
-26 -80 19 0
-26 -82 20 0
-26 -83 21 0
-26 -84 22 0
-26 -85 23 0
-26 -86 24 0
-26 -87 25 0
-27 -1 0
-27 -2 28 0
-27 -4 29 0
-27 -5 30 0
-27 -6 32 0
-27 -7 33 0
-27 -8 34 0
-28 -18 27 0
-28 -19 0
-28 -21 29 0
-28 -22 30 0
-28 -23 31 0
-28 -24 32 0
-28 -25 33 0
-28 -26 34 0
-29 -35 27 0
-29 -36 0
-29 -37 28 0
-29 -39 30 0
-29 -40 31 0
-29 -41 32 0
-29 -42 33 0
-29 -43 34 0
-30 -44 27 0
-30 -45 0
-30 -46 28 0
-30 -48 29 0
-30 -49 31 0
-30 -50 32 0
-30 -51 33 0
-30 -52 34 0
-31 27 0
-31 -53 0
-31 -54 28 0
-31 -56 29 0
-31 -57 30 0
-31 -58 32 0
-31 -59 33 0
-31 -60 34 0
-32 -61 27 0
-32 -62 0
-32 -63 28 0
-32 -65 29 0
-32 -66 30 0
-32 -67 31 0
-32 -68 33 0
-32 -69 34 0
-33 -70 27 0
-33 -71 0
-33 -72 28 0
-33 -74 29 0
-33 -75 30 0
-33 -76 31 0
-33 -77 32 0
-33 -78 34 0
-34 -79 27 0
-34 -80 0
-34 -81 28 0
-34 -83 29 0
-34 -84 30 0
-34 -85 31 0
-34 -86 32 0
-34 -87 33 0
-35 -1 36 0
-35 -2 37 0
-35 -3 38 0
-35 -5 39 0
-35 -6 41 0
-35 -7 42 0
-35 -8 43 0
-36 -9 35 0
-36 -10 37 0
-36 -11 38 0
-36 -13 39 0
-36 -14 40 0
-36 -15 41 0
-36 -16 42 0
-36 -17 43 0
-37 -18 35 0
-37 -19 36 0
-37 -20 38 0
-37 -22 39 0
-37 -23 40 0
-37 -24 41 0
-37 -25 42 0
-37 -26 43 0
-38 -27 35 0
-38 -28 37 0
-38 -30 39 0
-38 -31 40 0
-38 -32 41 0
-38 -33 42 0
-38 -34 43 0
-39 -44 35 0
-39 -45 36 0
-39 -46 37 0
-39 -47 38 0
-39 -49 40 0
-39 -50 41 0
-39 -51 42 0
-39 -52 43 0
-40 35 0
-40 -53 36 0
-40 -54 37 0
-40 -55 38 0
-40 -57 39 0
-40 -58 41 0
-40 -59 42 0
-40 -60 43 0
-41 -61 35 0
-41 -62 36 0
-41 -63 37 0
-41 -64 38 0
-41 -66 39 0
-41 -67 40 0
-41 -68 42 0
-41 -69 43 0
-42 -70 35 0
-42 -71 36 0
-42 -72 37 0
-42 -73 38 0
-42 -75 39 0
-42 -76 40 0
-42 -77 41 0
-42 -78 43 0
-43 -79 35 0
-43 -80 36 0
-43 -81 37 0
-43 -82 38 0
-43 -84 39 0
-43 -85 40 0
-43 -86 41 0
-43 -87 42 0
-44 -1 45 0
-44 -2 46 0
-44 -3 47 0
-44 -4 48 0
-44 -6 50 0
-44 -7 51 0
-44 -8 52 0
-45 -9 44 0
-45 -10 46 0
-45 -11 47 0
-45 -12 48 0
-45 -14 49 0
-45 -15 50 0
-45 -16 51 0
-45 -17 52 0
-46 -18 44 0
-46 -19 45 0
-46 -20 47 0
-46 -21 48 0
-46 -23 49 0
-46 -24 50 0
-46 -25 51 0
-46 -26 52 0
-47 -27 44 0
-47 -28 46 0
-47 -29 48 0
-47 -31 49 0
-47 -32 50 0
-47 -33 51 0
-47 -34 52 0
-48 -35 44 0
-48 -36 45 0
-48 -37 46 0
-48 -38 47 0
-48 -40 49 0
-48 -41 50 0
-48 -42 51 0
-48 -43 52 0
-49 44 0
-49 -53 45 0
-49 -54 46 0
-49 -55 47 0
-49 -56 48 0
-49 -58 50 0
-49 -59 51 0
-49 -60 52 0
-50 -61 44 0
-50 -62 45 0
-50 -63 46 0
-50 -64 47 0
-50 -65 48 0
-50 -67 49 0
-50 -68 51 0
-50 -69 52 0
-51 -70 44 0
-51 -71 45 0
-51 -72 46 0
-51 -73 47 0
-51 -74 48 0
-51 -76 49 0
-51 -77 50 0
-51 -78 52 0
-52 -79 44 0
-52 -80 45 0
-52 -81 46 0
-52 -82 47 0
-52 -83 48 0
-52 -85 49 0
-52 -86 50 0
-52 -87 51 0
-1 53 0
-2 54 0
-3 55 0
-4 56 0
-5 57 0
-6 58 0
-7 59 0
-8 60 0
-53 -10 54 0
-53 -11 55 0
-53 -12 56 0
-53 -13 57 0
-53 -15 58 0
-53 -16 59 0
-53 -17 60 0
-54 -19 53 0
-54 -20 55 0
-54 -21 56 0
-54 -22 57 0
-54 -24 58 0
-54 -25 59 0
-54 -26 60 0
-55 -28 54 0
-55 -29 56 0
-55 -30 57 0
-55 -32 58 0
-55 -33 59 0
-55 -34 60 0
-56 -36 53 0
-56 -37 54 0
-56 -38 55 0
-56 -39 57 0
-56 -41 58 0
-56 -42 59 0
-56 -43 60 0
-57 -45 53 0
-57 -46 54 0
-57 -47 55 0
-57 -48 56 0
-57 -50 58 0
-57 -51 59 0
-57 -52 60 0
-58 -62 53 0
-58 -63 54 0
-58 -64 55 0
-58 -65 56 0
-58 -66 57 0
-58 -68 59 0
-58 -69 60 0
-59 -71 53 0
-59 -72 54 0
-59 -73 55 0
-59 -74 56 0
-59 -75 57 0
-59 -77 58 0
-59 -78 60 0
-60 -80 53 0
-60 -81 54 0
-60 -82 55 0
-60 -83 56 0
-60 -84 57 0
-60 -86 58 0
-60 -87 59 0
-61 -1 62 0
-61 -2 63 0
-61 -3 64 0
-61 -4 65 0
-61 -5 66 0
-61 -7 68 0
-61 -8 69 0
-62 -9 61 0
-62 -10 63 0
-62 -11 64 0
-62 -12 65 0
-62 -13 66 0
-62 -14 67 0
-62 -16 68 0
-62 -17 69 0
-63 -18 61 0
-63 -19 62 0
-63 -20 64 0
-63 -21 65 0
-63 -22 66 0
-63 -23 67 0
-63 -25 68 0
-63 -26 69 0
-64 -27 61 0
-64 -28 63 0
-64 -29 65 0
-64 -30 66 0
-64 -31 67 0
-64 -33 68 0
-64 -34 69 0
-65 -35 61 0
-65 -36 62 0
-65 -37 63 0
-65 -38 64 0
-65 -39 66 0
-65 -40 67 0
-65 -42 68 0
-65 -43 69 0
-66 -44 61 0
-66 -45 62 0
-66 -46 63 0
-66 -47 64 0
-66 -48 65 0
-66 -49 67 0
-66 -51 68 0
-66 -52 69 0
-67 61 0
-67 -53 62 0
-67 -54 63 0
-67 -55 64 0
-67 -56 65 0
-67 -57 66 0
-67 -59 68 0
-67 -60 69 0
-68 -70 61 0
-68 -71 62 0
-68 -72 63 0
-68 -73 64 0
-68 -74 65 0
-68 -75 66 0
-68 -76 67 0
-68 -78 69 0
-69 -79 61 0
-69 -80 62 0
-69 -81 63 0
-69 -82 64 0
-69 -83 65 0
-69 -84 66 0
-69 -85 67 0
-69 -87 68 0
-70 -1 71 0
-70 -2 72 0
-70 -3 73 0
-70 -4 74 0
-70 -5 75 0
-70 -6 77 0
-70 -8 78 0
-71 -9 70 0
-71 -10 72 0
-71 -11 73 0
-71 -12 74 0
-71 -13 75 0
-71 -14 76 0
-71 -15 77 0
-71 -17 78 0
-72 -18 70 0
-72 -19 71 0
-72 -20 73 0
-72 -21 74 0
-72 -22 75 0
-72 -23 76 0
-72 -24 77 0
-72 -26 78 0
-73 -27 70 0
-73 -28 72 0
-73 -29 74 0
-73 -30 75 0
-73 -31 76 0
-73 -32 77 0
-73 -34 78 0
-74 -35 70 0
-74 -36 71 0
-74 -37 72 0
-74 -38 73 0
-74 -39 75 0
-74 -40 76 0
-74 -41 77 0
-74 -43 78 0
-75 -44 70 0
-75 -45 71 0
-75 -46 72 0
-75 -47 73 0
-75 -48 74 0
-75 -49 76 0
-75 -50 77 0
-75 -52 78 0
-76 70 0
-76 -53 71 0
-76 -54 72 0
-76 -55 73 0
-76 -56 74 0
-76 -57 75 0
-76 -58 77 0
-76 -60 78 0
-77 -61 70 0
-77 -62 71 0
-77 -63 72 0
-77 -64 73 0
-77 -65 74 0
-77 -66 75 0
-77 -67 76 0
-77 -69 78 0
-78 -79 70 0
-78 -80 71 0
-78 -81 72 0
-78 -82 73 0
-78 -83 74 0
-78 -84 75 0
-78 -85 76 0
-78 -86 77 0
-79 -1 80 0
-79 -2 81 0
-79 -3 82 0
-79 -4 83 0
-79 -5 84 0
-79 -6 86 0
-79 -7 87 0
-80 -9 79 0
-80 -10 81 0
-80 -11 82 0
-80 -12 83 0
-80 -13 84 0
-80 -14 85 0
-80 -15 86 0
-80 -16 87 0
-81 -18 79 0
-81 -19 80 0
-81 -20 82 0
-81 -21 83 0
-81 -22 84 0
-81 -23 85 0
-81 -24 86 0
-81 -25 87 0
-82 -27 79 0
-82 -28 81 0
-82 -29 83 0
-82 -30 84 0
-82 -31 85 0
-82 -32 86 0
-82 -33 87 0
-83 -35 79 0
-83 -36 80 0
-83 -37 81 0
-83 -38 82 0
-83 -39 84 0
-83 -40 85 0
-83 -41 86 0
-83 -42 87 0
-84 -44 79 0
-84 -45 80 0
-84 -46 81 0
-84 -47 82 0
-84 -48 83 0
-84 -49 85 0
-84 -50 86 0
-84 -51 87 0
-85 79 0
-85 -53 80 0
-85 -54 81 0
-85 -55 82 0
-85 -56 83 0
-85 -57 84 0
-85 -58 86 0
-85 -59 87 0
-86 -61 79 0
-86 -62 80 0
-86 -63 81 0
-86 -64 82 0
-86 -65 83 0
-86 -66 84 0
-86 -67 85 0
-86 -68 87 0
-87 -70 79 0
-87 -71 80 0
-87 -72 81 0
-87 -73 82 0
-87 -74 83 0
-87 -75 84 0
-87 -76 85 0
-87 -77 86 0
-1 -9 0
-2 -18 0
-3 -27 0
-4 -35 0
-5 -44 0
-6 -61 0
-7 -70 0
-8 -79 0
-10 -19 0
-12 -36 0
-13 -45 0
-14 -53 0
-15 -62 0
-16 -71 0
-17 -80 0
-20 -28 0
-21 -37 0
-22 -46 0
-23 -54 0
-24 -63 0
-25 -72 0
-26 -81 0
-29 -38 0
-30 -47 0
-31 -55 0
-32 -64 0
-33 -73 0
-34 -82 0
-39 -48 0
-40 -56 0
-41 -65 0
-42 -74 0
-43 -83 0
-49 -57 0
-50 -66 0
-51 -75 0
-52 -84 0
-58 -67 0
-59 -76 0
-60 -85 0
-68 -77 0
-69 -86 0
-78 -87 0
